num_offers = 20;
num_halls = 10;
start=[13,43,4,5,4,49,39,66,31,59,45,11,1,37,15,56,51,23,58,1];
end=[59,83,27,91,8,76,44,73,55,86,88,78,84,68,61,77,94,68,86,23];
price=[3725,1667,1878,5081,228,1297,245,654,1265,2294,1728,1775,943,1164,3369,1989,1655,1860,2181,1157];
requirement=[506,779,641,532,630,676,374,222,855,865,319,250,774,368,790,821,751,917,641,223];
capacity=[826,884,953,921,870,793,855,576,499,800];
